p edges 364 2021
e 1 114
e 2 3
e 2 4
e 2 5
e 2 6
e 2 7
e 2 8
e 2 11
e 2 38
e 2 47
e 2 55
e 2 80
e 2 108
e 2 120
e 3 4
e 3 41
e 3 76
e 3 104
e 3 324
e 4 5
e 4 7
e 4 33
e 4 49
e 4 62
e 4 79
e 4 88
e 4 96
e 4 98
e 4 107
e 5 6
e 5 7
e 5 8
e 5 9
e 5 10
e 5 23
e 5 52
e 5 60
e 5 81
e 5 112
e 5 320
e 6 7
e 6 8
e 6 9
e 6 10
e 6 17
e 6 27
e 6 51
e 6 74
e 6 116
e 7 8
e 7 9
e 7 10
e 7 64
e 7 84
e 7 91
e 7 99
e 7 109
e 7 114
e 7 115
e 7 319
e 8 9
e 8 10
e 8 34
e 8 42
e 8 82
e 8 92
e 8 110
e 8 326
e 9 10
e 9 16
e 9 35
e 9 58
e 9 73
e 9 83
e 9 93
e 9 111
e 9 122
e 10 28
e 10 53
e 10 66
e 10 95
e 10 101
e 10 113
e 10 117
e 11 12
e 11 13
e 11 14
e 11 15
e 11 16
e 11 38
e 11 47
e 11 55
e 11 128
e 11 146
e 11 169
e 12 13
e 12 14
e 12 31
e 12 48
e 12 54
e 12 68
e 12 166
e 13 14
e 13 19
e 13 21
e 13 40
e 13 56
e 13 67
e 13 70
e 13 124
e 13 147
e 13 317
e 14 22
e 14 29
e 14 32
e 14 45
e 14 144
e 14 167
e 14 330
e 15 16
e 15 17
e 15 18
e 15 24
e 15 72
e 15 130
e 15 134
e 15 172
e 16 17
e 16 18
e 16 35
e 16 58
e 16 73
e 16 135
e 16 173
e 17 18
e 17 27
e 17 51
e 17 74
e 17 131
e 17 156
e 17 164
e 18 25
e 18 36
e 18 44
e 18 59
e 18 61
e 18 132
e 18 150
e 18 322
e 19 20
e 19 21
e 19 22
e 19 23
e 19 24
e 19 25
e 19 40
e 19 56
e 19 75
e 19 124
e 19 183
e 19 207
e 19 317
e 20 21
e 20 22
e 20 23
e 20 24
e 20 25
e 20 30
e 20 57
e 20 78
e 20 126
e 20 127
e 21 22
e 21 40
e 21 56
e 21 75
e 21 124
e 21 183
e 21 207
e 21 317
e 22 29
e 22 32
e 22 45
e 22 185
e 22 205
e 23 24
e 23 25
e 23 26
e 23 27
e 23 28
e 23 52
e 23 60
e 23 81
e 23 129
e 23 133
e 23 210
e 23 320
e 24 25
e 24 26
e 24 27
e 24 28
e 24 130
e 24 134
e 24 189
e 25 26
e 25 27
e 25 28
e 25 36
e 25 44
e 25 59
e 25 61
e 25 85
e 25 132
e 25 322
e 25 332
e 26 27
e 26 28
e 26 43
e 26 50
e 26 65
e 26 180
e 26 181
e 26 195
e 26 321
e 27 28
e 27 51
e 27 131
e 27 182
e 27 188
e 27 190
e 27 204
e 27 209
e 27 212
e 28 53
e 28 66
e 28 191
e 28 196
e 28 213
e 29 30
e 29 31
e 29 32
e 29 33
e 29 34
e 29 45
e 29 225
e 29 335
e 30 31
e 30 32
e 30 33
e 30 34
e 30 57
e 30 90
e 30 228
e 30 238
e 30 336
e 31 32
e 31 33
e 31 48
e 31 54
e 31 224
e 31 226
e 31 237
e 31 333
e 32 33
e 32 45
e 32 225
e 32 335
e 33 49
e 33 62
e 33 88
e 33 137
e 33 175
e 33 178
e 33 247
e 33 250
e 34 35
e 34 36
e 34 42
e 34 92
e 34 139
e 34 179
e 34 230
e 34 234
e 35 36
e 35 58
e 35 93
e 35 221
e 35 222
e 35 231
e 35 242
e 36 44
e 36 59
e 36 61
e 36 94
e 36 223
e 36 243
e 36 322
e 37 38
e 37 39
e 37 40
e 37 41
e 37 42
e 37 43
e 37 46
e 37 63
e 37 186
e 37 214
e 37 271
e 37 273
e 37 318
e 38 39
e 38 40
e 38 41
e 38 42
e 38 43
e 38 47
e 38 55
e 38 146
e 38 215
e 38 217
e 38 263
e 38 342
e 39 40
e 39 41
e 39 97
e 39 269
e 39 316
e 40 41
e 40 56
e 40 147
e 40 183
e 40 216
e 40 257
e 40 261
e 40 280
e 40 282
e 40 317
e 41 143
e 41 184
e 41 187
e 41 258
e 41 270
e 42 43
e 42 44
e 42 149
e 42 276
e 43 44
e 43 50
e 43 65
e 43 100
e 43 220
e 43 277
e 43 321
e 43 344
e 44 59
e 44 61
e 44 150
e 44 223
e 44 265
e 44 322
e 45 46
e 45 47
e 45 48
e 45 49
e 45 50
e 45 51
e 45 225
e 45 259
e 46 47
e 46 48
e 46 49
e 46 50
e 46 51
e 46 63
e 46 105
e 46 153
e 46 193
e 46 298
e 46 301
e 46 318
e 47 48
e 47 49
e 47 50
e 47 51
e 47 52
e 47 55
e 47 108
e 47 263
e 47 292
e 47 349
e 48 49
e 48 54
e 48 102
e 48 224
e 48 226
e 48 256
e 48 289
e 48 347
e 49 52
e 49 62
e 49 107
e 49 154
e 49 299
e 50 51
e 50 52
e 50 53
e 50 65
e 50 155
e 50 157
e 50 195
e 50 236
e 50 306
e 50 321
e 51 52
e 51 53
e 51 156
e 51 264
e 52 53
e 52 60
e 52 112
e 52 267
e 52 293
e 52 320
e 53 66
e 53 113
e 53 196
e 53 232
e 53 266
e 53 307
e 54 55
e 54 56
e 54 57
e 54 58
e 54 59
e 54 237
e 54 289
e 54 353
e 55 56
e 55 57
e 55 58
e 55 59
e 55 60
e 55 239
e 55 292
e 56 57
e 56 290
e 56 317
e 56 354
e 57 238
e 57 291
e 57 355
e 58 59
e 58 60
e 58 61
e 58 242
e 58 295
e 58 357
e 59 60
e 59 61
e 59 243
e 59 322
e 59 358
e 60 61
e 60 240
e 60 293
e 60 320
e 60 356
e 61 243
e 61 322
e 61 358
e 62 63
e 62 64
e 62 247
e 62 250
e 62 299
e 62 311
e 62 312
e 63 246
e 63 249
e 63 298
e 63 301
e 63 310
e 63 318
e 64 65
e 64 66
e 64 251
e 64 302
e 64 304
e 64 314
e 64 319
e 64 362
e 65 66
e 65 253
e 65 306
e 65 315
e 65 321
e 66 213
e 66 255
e 66 286
e 66 307
e 66 313
e 67 68
e 67 69
e 67 70
e 67 71
e 67 72
e 67 73
e 67 75
e 67 87
e 67 89
e 67 124
e 67 147
e 68 69
e 68 70
e 68 71
e 68 102
e 68 118
e 68 166
e 69 70
e 69 71
e 69 86
e 69 97
e 69 103
e 69 151
e 69 158
e 69 161
e 69 323
e 69 328
e 70 71
e 70 75
e 70 87
e 70 89
e 70 124
e 70 147
e 71 78
e 71 90
e 71 106
e 71 119
e 71 126
e 71 127
e 71 145
e 71 148
e 71 168
e 72 73
e 72 74
e 72 121
e 72 130
e 72 134
e 72 172
e 73 74
e 73 83
e 73 93
e 73 111
e 73 122
e 73 135
e 73 173
e 74 116
e 74 131
e 74 156
e 74 164
e 75 76
e 75 77
e 75 78
e 75 79
e 75 80
e 75 81
e 75 82
e 75 83
e 75 87
e 75 89
e 75 124
e 75 183
e 75 207
e 76 77
e 76 78
e 76 79
e 76 80
e 76 81
e 76 82
e 76 83
e 76 104
e 76 125
e 76 176
e 76 184
e 76 187
e 76 197
e 76 199
e 76 324
e 77 78
e 77 79
e 77 80
e 77 105
e 77 174
e 77 177
e 77 186
e 77 193
e 77 325
e 78 79
e 78 80
e 78 84
e 78 90
e 78 106
e 78 119
e 78 126
e 78 127
e 79 80
e 79 81
e 79 84
e 79 88
e 79 96
e 79 98
e 79 107
e 79 175
e 79 178
e 79 200
e 80 81
e 80 82
e 80 84
e 80 108
e 80 120
e 80 128
e 80 206
e 81 82
e 81 83
e 81 84
e 81 85
e 81 112
e 81 129
e 81 133
e 81 210
e 82 83
e 82 84
e 82 85
e 82 92
e 82 110
e 82 179
e 82 202
e 82 203
e 82 208
e 82 326
e 83 84
e 83 85
e 83 93
e 83 111
e 83 122
e 83 135
e 83 211
e 83 331
e 84 85
e 84 91
e 84 99
e 84 109
e 84 114
e 84 115
e 84 194
e 84 201
e 85 94
e 85 123
e 85 132
e 85 332
e 86 87
e 86 88
e 86 89
e 86 90
e 86 91
e 86 92
e 86 93
e 86 97
e 86 103
e 86 244
e 86 248
e 86 323
e 86 334
e 87 88
e 87 89
e 87 90
e 87 91
e 87 92
e 87 93
e 87 216
e 87 227
e 88 89
e 88 90
e 88 91
e 88 92
e 88 93
e 88 96
e 88 98
e 88 107
e 88 137
e 88 175
e 88 178
e 88 247
e 88 250
e 89 90
e 89 216
e 89 227
e 90 91
e 90 106
e 90 119
e 90 228
e 90 238
e 90 336
e 91 92
e 91 93
e 91 94
e 91 95
e 91 99
e 91 109
e 91 114
e 91 115
e 91 218
e 91 229
e 91 233
e 91 251
e 91 337
e 92 93
e 92 94
e 92 95
e 92 110
e 92 139
e 92 179
e 92 230
e 92 234
e 92 326
e 93 94
e 93 95
e 93 111
e 93 122
e 93 221
e 93 222
e 93 231
e 93 242
e 94 95
e 94 123
e 94 223
e 94 243
e 95 101
e 95 113
e 95 117
e 95 142
e 95 232
e 95 255
e 96 97
e 96 98
e 96 99
e 96 100
e 96 107
e 96 272
e 96 341
e 97 98
e 97 103
e 97 269
e 97 323
e 98 99
e 98 107
e 98 272
e 98 341
e 99 100
e 99 101
e 99 109
e 99 114
e 99 115
e 99 218
e 99 274
e 99 275
e 100 101
e 100 220
e 100 277
e 100 327
e 100 344
e 101 113
e 101 117
e 101 191
e 101 266
e 101 286
e 102 103
e 102 104
e 102 105
e 102 106
e 102 107
e 102 108
e 102 109
e 102 110
e 102 111
e 102 118
e 102 224
e 102 226
e 102 256
e 102 289
e 102 347
e 103 104
e 103 105
e 103 106
e 103 107
e 103 108
e 103 109
e 103 110
e 103 111
e 103 151
e 103 192
e 103 323
e 104 105
e 104 106
e 104 107
e 104 108
e 104 109
e 104 110
e 104 111
e 104 152
e 104 258
e 104 297
e 104 300
e 104 324
e 105 106
e 105 107
e 105 108
e 105 109
e 105 110
e 105 111
e 105 153
e 105 193
e 105 298
e 105 301
e 105 325
e 106 107
e 106 108
e 106 109
e 106 119
e 106 228
e 106 260
e 106 262
e 106 291
e 107 108
e 107 109
e 107 112
e 107 154
e 107 299
e 108 109
e 108 110
e 108 112
e 108 120
e 108 263
e 108 292
e 108 349
e 109 110
e 109 111
e 109 112
e 109 113
e 109 114
e 109 115
e 109 194
e 109 229
e 109 233
e 109 302
e 109 304
e 110 111
e 110 112
e 110 113
e 110 230
e 110 234
e 110 303
e 110 305
e 110 326
e 111 112
e 111 113
e 111 122
e 111 231
e 111 295
e 111 351
e 112 113
e 112 267
e 112 293
e 113 117
e 113 196
e 113 232
e 113 266
e 113 307
e 114 115
e 114 116
e 114 117
e 114 201
e 114 274
e 114 275
e 114 314
e 115 116
e 115 117
e 115 201
e 115 274
e 115 275
e 115 314
e 116 117
e 116 164
e 116 204
e 116 278
e 117 165
e 117 313
e 118 119
e 118 120
e 118 121
e 118 122
e 118 166
e 118 279
e 119 120
e 119 168
e 119 284
e 119 361
e 120 169
e 120 206
e 121 122
e 121 123
e 121 172
e 121 285
e 122 123
e 122 173
e 122 211
e 122 288
e 123 364
e 124 125
e 124 126
e 124 127
e 124 128
e 124 129
e 124 130
e 124 131
e 124 132
e 124 147
e 124 183
e 124 207
e 125 126
e 125 127
e 125 128
e 125 129
e 125 130
e 125 131
e 125 132
e 125 136
e 125 138
e 125 143
e 125 152
e 125 176
e 125 184
e 125 187
e 125 197
e 125 199
e 125 329
e 126 127
e 126 128
e 126 129
e 126 130
e 126 131
e 126 132
e 126 145
e 126 148
e 126 168
e 127 128
e 127 145
e 127 148
e 127 168
e 128 129
e 128 133
e 128 146
e 128 169
e 128 206
e 129 130
e 129 131
e 129 132
e 129 133
e 129 134
e 129 135
e 129 171
e 129 210
e 130 131
e 130 132
e 130 133
e 130 134
e 130 135
e 130 172
e 130 189
e 131 132
e 131 133
e 131 134
e 131 135
e 131 156
e 131 164
e 131 182
e 131 188
e 131 190
e 131 204
e 131 209
e 131 212
e 132 133
e 132 134
e 132 135
e 132 150
e 132 332
e 133 134
e 133 135
e 133 171
e 133 210
e 134 135
e 134 172
e 134 189
e 135 173
e 135 211
e 135 331
e 136 137
e 136 138
e 136 139
e 136 140
e 136 143
e 136 152
e 136 176
e 136 245
e 136 329
e 137 138
e 137 139
e 137 140
e 137 154
e 137 160
e 137 175
e 137 178
e 137 247
e 137 250
e 138 143
e 138 152
e 138 176
e 138 245
e 138 329
e 139 140
e 139 141
e 139 142
e 139 149
e 139 162
e 139 170
e 139 179
e 139 230
e 139 234
e 140 141
e 140 142
e 140 155
e 140 157
e 140 163
e 140 180
e 140 181
e 140 220
e 140 236
e 140 253
e 141 142
e 141 155
e 141 157
e 141 163
e 141 180
e 141 181
e 141 220
e 141 236
e 141 253
e 142 165
e 142 232
e 142 255
e 143 144
e 143 145
e 143 146
e 143 147
e 143 148
e 143 149
e 143 152
e 143 184
e 143 187
e 143 258
e 143 270
e 143 329
e 144 145
e 144 146
e 144 147
e 144 148
e 144 149
e 144 167
e 144 185
e 144 259
e 144 281
e 144 283
e 144 330
e 145 146
e 145 147
e 145 148
e 145 149
e 145 168
e 145 260
e 145 262
e 145 284
e 146 147
e 146 148
e 146 149
e 146 169
e 146 215
e 146 217
e 146 263
e 146 342
e 147 148
e 147 183
e 147 216
e 147 257
e 147 261
e 147 280
e 147 282
e 148 168
e 148 260
e 148 262
e 148 284
e 149 150
e 149 162
e 149 170
e 149 276
e 150 223
e 150 265
e 151 152
e 151 153
e 151 154
e 151 155
e 151 156
e 151 158
e 151 161
e 151 192
e 151 328
e 152 153
e 152 154
e 152 155
e 152 156
e 152 258
e 152 297
e 152 300
e 152 329
e 153 154
e 153 155
e 153 156
e 153 159
e 153 193
e 153 298
e 153 301
e 154 160
e 154 299
e 155 156
e 155 157
e 155 163
e 155 195
e 155 236
e 155 306
e 156 157
e 156 164
e 156 264
e 157 163
e 157 195
e 157 236
e 157 306
e 158 159
e 158 160
e 158 161
e 158 162
e 158 198
e 158 269
e 158 308
e 158 328
e 159 160
e 159 161
e 159 162
e 159 271
e 159 273
e 159 310
e 160 161
e 160 162
e 160 200
e 160 272
e 160 311
e 160 312
e 161 198
e 161 269
e 161 308
e 161 328
e 162 163
e 162 164
e 162 165
e 162 170
e 162 202
e 162 203
e 162 276
e 163 164
e 163 165
e 163 277
e 163 315
e 164 165
e 164 204
e 164 278
e 165 313
e 166 167
e 166 168
e 166 169
e 166 170
e 166 279
e 167 168
e 167 169
e 167 170
e 167 205
e 167 281
e 167 283
e 167 330
e 167 360
e 168 169
e 168 284
e 168 361
e 169 170
e 169 171
e 169 206
e 170 171
e 170 172
e 170 173
e 170 208
e 170 303
e 170 305
e 171 172
e 171 173
e 171 210
e 171 287
e 171 363
e 172 173
e 172 285
e 173 211
e 173 288
e 174 175
e 174 176
e 174 177
e 174 178
e 174 179
e 174 180
e 174 186
e 174 193
e 174 214
e 174 246
e 174 249
e 175 176
e 175 177
e 175 178
e 175 179
e 175 180
e 175 200
e 175 247
e 175 250
e 176 177
e 176 178
e 176 184
e 176 187
e 176 197
e 176 199
e 176 245
e 177 178
e 177 186
e 177 193
e 177 214
e 177 246
e 177 249
e 178 200
e 178 247
e 178 250
e 179 180
e 179 181
e 179 182
e 179 202
e 179 203
e 179 208
e 179 230
e 179 234
e 180 181
e 180 182
e 180 195
e 180 220
e 180 236
e 180 253
e 181 182
e 181 195
e 181 220
e 181 236
e 181 253
e 182 188
e 182 190
e 182 204
e 182 209
e 182 212
e 182 252
e 182 254
e 183 184
e 183 185
e 183 186
e 183 187
e 183 188
e 183 207
e 183 216
e 183 257
e 183 261
e 183 280
e 183 282
e 184 185
e 184 186
e 184 187
e 184 188
e 184 197
e 184 199
e 184 258
e 184 270
e 185 186
e 185 187
e 185 188
e 185 205
e 185 259
e 185 281
e 185 283
e 186 187
e 186 188
e 186 193
e 186 214
e 186 271
e 186 273
e 187 197
e 187 199
e 187 258
e 187 270
e 188 189
e 188 190
e 188 191
e 188 204
e 188 209
e 188 212
e 188 264
e 188 278
e 188 346
e 189 190
e 189 191
e 189 268
e 189 285
e 190 191
e 190 204
e 190 209
e 190 212
e 190 264
e 190 278
e 190 346
e 191 196
e 191 213
e 191 266
e 191 286
e 192 193
e 192 198
e 193 298
e 193 301
e 194 195
e 194 196
e 194 201
e 194 229
e 194 233
e 194 302
e 194 304
e 195 196
e 195 236
e 195 306
e 196 213
e 196 232
e 196 266
e 196 307
e 197 198
e 197 199
e 197 200
e 197 201
e 197 202
e 197 270
e 197 309
e 198 199
e 198 200
e 198 269
e 198 308
e 199 200
e 199 270
e 199 309
e 200 201
e 200 272
e 200 311
e 200 312
e 201 202
e 201 203
e 201 204
e 201 274
e 201 275
e 201 314
e 202 203
e 202 204
e 202 208
e 202 276
e 203 204
e 203 208
e 203 276
e 204 209
e 204 212
e 204 278
e 205 206
e 205 207
e 205 208
e 205 209
e 205 281
e 205 283
e 205 360
e 206 207
e 206 208
e 206 209
e 206 210
e 207 280
e 207 282
e 207 359
e 208 209
e 208 210
e 208 211
e 208 212
e 208 213
e 208 303
e 208 305
e 209 210
e 209 211
e 209 212
e 209 213
e 209 252
e 209 254
e 210 211
e 210 212
e 210 213
e 210 287
e 210 363
e 211 212
e 211 213
e 211 288
e 211 331
e 212 213
e 212 252
e 212 254
e 213 255
e 213 286
e 213 307
e 213 313
e 214 215
e 214 216
e 214 217
e 214 218
e 214 219
e 214 220
e 214 221
e 214 246
e 214 249
e 214 271
e 214 273
e 215 216
e 215 217
e 215 218
e 215 219
e 215 220
e 215 221
e 215 239
e 215 263
e 215 342
e 216 217
e 216 227
e 216 257
e 216 261
e 216 280
e 216 282
e 217 218
e 217 219
e 217 239
e 217 263
e 217 342
e 218 219
e 218 220
e 218 221
e 218 222
e 218 223
e 218 229
e 218 233
e 218 251
e 218 274
e 218 275
e 218 337
e 219 220
e 219 221
e 219 222
e 219 223
e 219 240
e 219 267
e 219 287
e 219 338
e 219 343
e 220 221
e 220 222
e 220 223
e 220 236
e 220 253
e 220 277
e 220 344
e 221 222
e 221 223
e 221 231
e 221 242
e 221 288
e 221 345
e 222 223
e 222 231
e 222 242
e 222 288
e 222 345
e 223 243
e 223 265
e 224 225
e 224 226
e 224 227
e 224 228
e 224 229
e 224 230
e 224 231
e 224 232
e 224 237
e 224 256
e 224 289
e 224 333
e 224 347
e 225 226
e 225 227
e 225 228
e 225 229
e 225 230
e 225 231
e 225 232
e 225 259
e 225 335
e 226 227
e 226 228
e 226 237
e 226 256
e 226 289
e 226 333
e 226 347
e 227 228
e 227 257
e 227 261
e 227 290
e 227 348
e 228 229
e 228 233
e 228 238
e 228 260
e 228 262
e 228 291
e 228 336
e 229 230
e 229 231
e 229 232
e 229 233
e 229 234
e 229 235
e 229 236
e 229 251
e 229 302
e 229 304
e 229 337
e 230 231
e 230 232
e 230 233
e 230 234
e 230 235
e 230 236
e 230 303
e 230 305
e 231 232
e 231 233
e 231 234
e 231 235
e 231 236
e 231 242
e 231 295
e 231 351
e 232 233
e 232 234
e 232 235
e 232 236
e 232 255
e 232 266
e 232 307
e 233 234
e 233 235
e 233 236
e 233 251
e 233 302
e 233 304
e 233 337
e 234 235
e 234 236
e 234 303
e 234 305
e 235 236
e 235 241
e 235 268
e 235 294
e 235 296
e 235 339
e 235 350
e 236 253
e 236 306
e 237 238
e 237 239
e 237 240
e 237 241
e 237 242
e 237 289
e 237 333
e 237 353
e 238 239
e 238 291
e 238 336
e 238 355
e 239 240
e 239 292
e 240 241
e 240 242
e 240 243
e 240 293
e 240 338
e 240 356
e 241 242
e 241 243
e 241 294
e 241 296
e 241 339
e 242 243
e 242 295
e 242 357
e 243 358
e 244 245
e 244 246
e 244 247
e 244 248
e 244 249
e 244 250
e 244 251
e 244 252
e 244 308
e 244 334
e 245 246
e 245 247
e 245 248
e 245 249
e 245 250
e 245 251
e 245 252
e 245 297
e 245 300
e 245 309
e 246 247
e 246 248
e 246 249
e 246 250
e 246 251
e 246 252
e 246 298
e 246 301
e 246 310
e 247 248
e 247 249
e 247 250
e 247 251
e 247 252
e 247 299
e 247 311
e 247 312
e 248 249
e 248 250
e 248 308
e 248 334
e 249 250
e 249 298
e 249 301
e 249 310
e 250 251
e 250 299
e 250 311
e 250 312
e 251 252
e 251 253
e 251 254
e 251 255
e 251 302
e 251 304
e 251 314
e 251 337
e 251 362
e 252 253
e 252 254
e 252 255
e 253 254
e 253 255
e 253 306
e 253 315
e 254 255
e 255 286
e 255 307
e 255 313
e 256 257
e 256 258
e 256 259
e 256 260
e 256 261
e 256 262
e 256 263
e 256 264
e 256 265
e 256 266
e 256 279
e 256 289
e 256 340
e 256 347
e 257 258
e 257 259
e 257 260
e 257 261
e 257 262
e 257 263
e 257 264
e 257 265
e 257 266
e 257 280
e 257 282
e 257 290
e 257 348
e 258 259
e 258 260
e 258 261
e 258 262
e 258 263
e 258 264
e 258 265
e 258 266
e 258 270
e 258 297
e 258 300
e 259 260
e 259 261
e 259 262
e 259 263
e 259 264
e 259 265
e 259 266
e 259 281
e 259 283
e 260 261
e 260 262
e 260 263
e 260 264
e 260 265
e 260 266
e 260 284
e 260 291
e 261 262
e 261 263
e 261 280
e 261 282
e 261 290
e 261 348
e 262 263
e 262 284
e 262 291
e 263 267
e 263 292
e 263 342
e 263 349
e 264 265
e 264 266
e 264 267
e 264 268
e 264 278
e 264 346
e 265 266
e 265 267
e 265 268
e 265 352
e 266 267
e 266 268
e 266 286
e 266 307
e 267 268
e 267 287
e 267 293
e 267 343
e 268 285
e 268 294
e 268 296
e 268 350
e 269 270
e 269 271
e 269 272
e 269 273
e 269 274
e 269 308
e 270 271
e 270 272
e 270 273
e 270 274
e 270 309
e 271 272
e 271 273
e 271 274
e 271 310
e 272 273
e 272 274
e 272 275
e 272 311
e 272 312
e 272 341
e 273 310
e 274 275
e 274 276
e 274 277
e 274 278
e 274 314
e 275 276
e 275 277
e 275 278
e 275 314
e 276 277
e 276 278
e 277 278
e 277 315
e 277 344
e 278 346
e 279 280
e 279 281
e 279 282
e 279 283
e 279 284
e 279 285
e 279 286
e 279 340
e 280 281
e 280 282
e 280 283
e 280 284
e 280 285
e 280 286
e 280 359
e 281 282
e 281 283
e 281 284
e 281 285
e 281 286
e 281 360
e 282 283
e 282 284
e 282 359
e 283 284
e 283 360
e 284 361
e 285 286
e 285 287
e 285 288
e 286 287
e 286 288
e 286 307
e 286 313
e 287 288
e 287 343
e 287 363
e 288 345
e 289 290
e 289 291
e 289 292
e 289 293
e 289 294
e 289 295
e 289 347
e 289 353
e 290 291
e 290 292
e 290 348
e 290 354
e 291 292
e 291 355
e 292 293
e 292 349
e 293 294
e 293 295
e 293 296
e 293 356
e 294 295
e 294 296
e 294 350
e 295 296
e 295 351
e 295 357
e 296 350
e 297 298
e 297 299
e 297 300
e 297 301
e 297 302
e 297 303
e 297 309
e 298 299
e 298 300
e 298 301
e 298 302
e 298 303
e 298 310
e 299 300
e 299 301
e 299 302
e 299 303
e 299 304
e 299 311
e 299 312
e 300 301
e 300 309
e 301 310
e 302 303
e 302 304
e 302 305
e 302 306
e 302 307
e 302 314
e 302 362
e 303 304
e 303 305
e 303 306
e 303 307
e 304 305
e 304 306
e 304 307
e 304 314
e 304 362
e 305 306
e 305 307
e 306 307
e 306 315
e 307 313
e 308 309
e 308 310
e 308 311
e 308 312
e 308 313
e 309 310
e 309 311
e 309 312
e 309 313
e 310 311
e 310 312
e 310 313
e 311 312
e 311 313
e 311 314
e 312 314
e 313 314
e 313 315
e 314 315
e 314 362
e 316 317
e 316 318
e 317 318
e 319 320
e 319 321
e 319 322
e 320 321
e 320 322
e 321 322
e 323 324
e 323 325
e 324 325
e 326 327
e 328 329
e 328 330
e 329 330
e 331 332
e 333 334
e 333 335
e 333 336
e 334 335
e 334 336
e 335 336
e 336 337
e 337 338
e 337 339
e 338 339
e 340 341
e 340 342
e 341 342
e 341 343
e 342 343
e 343 344
e 343 345
e 343 346
e 344 345
e 344 346
e 345 346
e 347 348
e 347 349
e 348 349
e 350 351
e 350 352
e 351 352
e 353 354
e 353 355
e 354 355
e 356 357
e 356 358
e 357 358
e 359 360
e 359 361
e 360 361
e 361 362
e 362 363
e 362 364
e 363 364
w 1 781
w 2 313
w 3 625
w 4 60
w 5 193
w 6 493
w 7 12
w 8 63
w 9 120
w 10 116
w 11 293
w 12 319
w 13 285
w 14 101
w 15 385
w 16 320
w 17 101
w 18 192
w 19 56
w 20 293
w 21 299
w 22 349
w 23 9
w 24 614
w 25 25
w 26 131
w 27 22
w 28 196
w 29 25
w 30 501
w 31 25
w 32 371
w 33 75
w 34 472
w 35 309
w 36 217
w 37 65
w 38 113
w 39 382
w 40 65
w 41 373
w 42 463
w 43 357
w 44 178
w 45 151
w 46 317
w 47 11
w 48 272
w 49 246
w 50 135
w 51 383
w 52 283
w 53 197
w 54 382
w 55 267
w 56 144
w 57 205
w 58 249
w 59 99
w 60 395
w 61 254
w 62 617
w 63 382
w 64 382
w 65 128
w 66 489
w 67 178
w 68 320
w 69 178
w 70 94
w 71 228
w 72 419
w 73 401
w 74 178
w 75 177
w 76 143
w 77 169
w 78 228
w 79 107
w 80 173
w 81 332
w 82 129
w 83 217
w 84 291
w 85 29
w 86 308
w 87 469
w 88 62
w 89 80
w 90 79
w 91 12
w 92 126
w 93 19
w 94 609
w 95 231
w 96 210
w 97 387
w 98 401
w 99 387
w 100 401
w 101 210
w 102 318
w 103 13
w 104 113
w 105 58
w 106 276
w 107 157
w 108 62
w 109 35
w 110 278
w 111 182
w 112 473
w 113 30
w 114 218
w 115 41
w 116 328
w 117 411
w 118 361
w 119 188
w 120 450
w 121 580
w 122 58
w 123 361
w 124 80
w 125 36
w 126 23
w 127 455
w 128 404
w 129 483
w 130 169
w 131 36
w 132 171
w 133 111
w 134 15
w 135 12
w 136 453
w 137 257
w 138 289
w 139 144
w 140 144
w 141 122
w 142 588
w 143 50
w 144 313
w 145 98
w 146 173
w 147 361
w 148 3
w 149 364
w 150 635
w 151 1
w 152 74
w 153 417
w 154 506
w 155 24
w 156 482
w 157 493
w 158 9
w 159 582
w 160 235
w 161 171
w 162 171
w 163 215
w 164 201
w 165 411
w 166 360
w 167 319
w 168 191
w 169 128
w 170 319
w 171 404
w 172 9
w 173 265
w 174 236
w 175 168
w 176 40
w 177 198
w 178 355
w 179 99
w 180 494
w 181 137
w 182 267
w 183 200
w 184 137
w 185 256
w 186 379
w 187 26
w 188 26
w 189 200
w 190 371
w 191 402
w 192 984
w 193 15
w 194 374
w 195 236
w 196 388
w 197 377
w 198 15
w 199 239
w 200 368
w 201 334
w 202 287
w 203 368
w 204 8
w 205 393
w 206 421
w 207 185
w 208 113
w 209 71
w 210 62
w 211 544
w 212 196
w 213 11
w 214 288
w 215 24
w 216 301
w 217 385
w 218 259
w 219 330
w 220 29
w 221 68
w 222 196
w 223 116
w 224 24
w 225 560
w 226 202
w 227 148
w 228 64
w 229 7
w 230 23
w 231 314
w 232 69
w 233 287
w 234 131
w 235 124
w 236 40
w 237 56
w 238 353
w 239 589
w 240 323
w 241 528
w 242 91
w 243 56
w 244 238
w 245 216
w 246 114
w 247 72
w 248 186
w 249 161
w 250 9
w 251 125
w 252 232
w 253 31
w 254 500
w 255 110
w 256 150
w 257 2
w 258 91
w 259 288
w 260 17
w 261 38
w 262 332
w 263 78
w 264 134
w 265 69
w 266 245
w 267 160
w 268 390
w 269 229
w 270 319
w 271 70
w 272 183
w 273 197
w 274 197
w 275 155
w 276 172
w 277 13
w 278 461
w 279 278
w 280 29
w 281 140
w 282 1
w 283 1
w 284 548
w 285 409
w 286 141
w 287 315
w 288 132
w 289 18
w 290 530
w 291 309
w 292 142
w 293 81
w 294 453
w 295 447
w 296 18
w 297 532
w 298 140
w 299 88
w 300 186
w 301 51
w 302 172
w 303 66
w 304 123
w 305 499
w 306 69
w 307 69
w 308 574
w 309 63
w 310 150
w 311 34
w 312 177
w 313 177
w 314 52
w 315 770
w 316 617
w 317 148
w 318 234
w 319 604
w 320 118
w 321 247
w 322 30
w 323 111
w 324 117
w 325 771
w 326 401
w 327 598
w 328 638
w 329 95
w 330 265
w 331 226
w 332 773
w 333 691
w 334 265
w 335 42
w 336 1
w 337 307
w 338 346
w 339 346
w 340 571
w 341 204
w 342 224
w 343 192
w 344 197
w 345 602
w 346 7
w 347 15
w 348 280
w 349 704
w 350 13
w 351 55
w 352 930
w 353 542
w 354 325
w 355 131
w 356 199
w 357 211
w 358 588
w 359 783
w 360 144
w 361 71
w 362 144
w 363 216
w 364 638
n 1 C0442
n 2 C0180
n 3 C0335
n 4 C0339
n 5 C0182
n 6 C0187
n 7 C0341
n 8 C0343
n 9 C0346
n 10 C0349
n 11 C0198
n 12 C0492
n 13 C0494
n 14 C0496
n 15 C0201
n 16 C0203
n 17 C0506
n 18 C0507
n 19 C0208
n 20 C0212
n 21 C0634
n 22 C0636
n 23 C0216
n 24 C0218
n 25 C0222
n 26 C0645
n 27 C0647
n 28 C0649
n 29 C0228
n 30 C0230
n 31 C0777
n 32 C0781
n 33 C0784
n 34 C0235
n 35 C0791
n 36 C0793
n 37 C0247
n 38 C0250
n 39 C0938
n 40 C0939
n 41 C0940
n 42 C0253
n 43 C0255
n 44 C0953
n 45 C0264
n 46 C0265
n 47 C0268
n 48 C1097
n 49 C1104
n 50 C0273
n 51 C0275
n 52 C1107
n 53 C1114
n 54 C0278
n 55 C0286
n 56 C1259
n 57 C1263
n 58 C0292
n 59 C0294
n 60 C1267
n 61 C1273
n 62 C0303
n 63 C1422
n 64 C0305
n 65 C1430
n 66 C1434
n 67 C0352
n 68 C0509
n 69 C0510
n 70 C0511
n 71 C0515
n 72 C0361
n 73 C0363
n 74 C0523
n 75 C0368
n 76 C0369
n 77 C0654
n 78 C0655
n 79 C0656
n 80 C0657
n 81 C0376
n 82 C0377
n 83 C0380
n 84 C0658
n 85 C0665
n 86 C0385
n 87 C0386
n 88 C0391
n 89 C0797
n 90 C0801
n 91 C0393
n 92 C0395
n 93 C0398
n 94 C0811
n 95 C0812
n 96 C0409
n 97 C0956
n 98 C0962
n 99 C0411
n 100 C0415
n 101 C0972
n 102 C0420
n 103 C0421
n 104 C0423
n 105 C0425
n 106 C1121
n 107 C1122
n 108 C1123
n 109 C0429
n 110 C0431
n 111 C0434
n 112 C1125
n 113 C1132
n 114 C0447
n 115 C1284
n 116 C1290
n 117 C1292
n 118 C0456
n 119 C1441
n 120 C1443
n 121 C0468
n 122 C0470
n 123 C1451
n 124 C0527
n 125 C0528
n 126 C0531
n 127 C0672
n 128 C0674
n 129 C0534
n 130 C0536
n 131 C0539
n 132 C0540
n 133 C0675
n 134 C0677
n 135 C0679
n 136 C0545
n 137 C0549
n 138 C0816
n 139 C0552
n 140 C0554
n 141 C0825
n 142 C0829
n 143 C0562
n 144 C0563
n 145 C0565
n 146 C0567
n 147 C0975
n 148 C0979
n 149 C0569
n 150 C0988
n 151 C0577
n 152 C0579
n 153 C0581
n 154 C1140
n 155 C0588
n 156 C0590
n 157 C1145
n 158 C0594
n 159 C0598
n 160 C0600
n 161 C1294
n 162 C0603
n 163 C1305
n 164 C1307
n 165 C1309
n 166 C0610
n 167 C0614
n 168 C1459
n 169 C1461
n 170 C0620
n 171 C1462
n 172 C1464
n 173 C1466
n 174 C0687
n 175 C0689
n 176 C0832
n 177 C0834
n 178 C0836
n 179 C0693
n 180 C0695
n 181 C0842
n 182 C0844
n 183 C0701
n 184 C0702
n 185 C0703
n 186 C0704
n 187 C0992
n 188 C0714
n 189 C1001
n 190 C1004
n 191 C1006
n 192 C0717
n 193 C0721
n 194 C1158
n 195 C1162
n 196 C1166
n 197 C0736
n 198 C1310
n 199 C1312
n 200 C1316
n 201 C0742
n 202 C0744
n 203 C1320
n 204 C1324
n 205 C0754
n 206 C0758
n 207 C1471
n 208 C0761
n 209 C0765
n 210 C1479
n 211 C1483
n 212 C1484
n 213 C1486
n 214 C0852
n 215 C0855
n 216 C1009
n 217 C1015
n 218 C0856
n 219 C0857
n 220 C0860
n 221 C0861
n 222 C1021
n 223 C1023
n 224 C0865
n 225 C0869
n 226 C1167
n 227 C1169
n 228 C1173
n 229 C0874
n 230 C0876
n 231 C0879
n 232 C0882
n 233 C1176
n 234 C1178
n 235 C1179
n 236 C1180
n 237 C0883
n 238 C1333
n 239 C1335
n 240 C0893
n 241 C0895
n 242 C0897
n 243 C1343
n 244 C0902
n 245 C0904
n 246 C0906
n 247 C0908
n 248 C1488
n 249 C1492
n 250 C1494
n 251 C0910
n 252 C0916
n 253 C1500
n 254 C1502
n 255 C1504
n 256 C1025
n 257 C1027
n 258 C1028
n 259 C1029
n 260 C1031
n 261 C1187
n 262 C1191
n 263 C1193
n 264 C1040
n 265 C1041
n 266 C1042
n 267 C1195
n 268 C1197
n 269 C1044
n 270 C1046
n 271 C1048
n 272 C1050
n 273 C1350
n 274 C1052
n 275 C1354
n 276 C1356
n 277 C1358
n 278 C1360
n 279 C1061
n 280 C1063
n 281 C1065
n 282 C1507
n 283 C1509
n 284 C1511
n 285 C1073
n 286 C1078
n 287 C1515
n 288 C1519
n 289 C1203
n 290 C1365
n 291 C1369
n 292 C1371
n 293 C1213
n 294 C1215
n 295 C1217
n 296 C1375
n 297 C1224
n 298 C1226
n 299 C1228
n 300 C1526
n 301 C1528
n 302 C1230
n 303 C1232
n 304 C1532
n 305 C1534
n 306 C1536
n 307 C1540
n 308 C1382
n 309 C1384
n 310 C1386
n 311 C1388
n 312 C1548
n 313 C1398
n 314 C1550
n 315 C1554
n 316 C0315
n 317 C0316
n 318 C0319
n 319 C0323
n 320 C0324
n 321 C0327
n 322 C0330
n 323 C0475
n 324 C0477
n 325 C0479
n 326 C0485
n 327 C0487
n 328 C0628
n 329 C0630
n 330 C0631
n 331 C0773
n 332 C0775
n 333 C0919
n 334 C0920
n 335 C0923
n 336 C0925
n 337 C0928
n 338 C0929
n 339 C0931
n 340 C1079
n 341 C1086
n 342 C1087
n 343 C1089
n 344 C1092
n 345 C1093
n 346 C1094
n 347 C1239
n 348 C1241
n 349 C1247
n 350 C1251
n 351 C1253
n 352 C1255
n 353 C1399
n 354 C1401
n 355 C1405
n 356 C1409
n 357 C1413
n 358 C1415
n 359 C1561
n 360 C1563
n 361 C1565
n 362 C1568
n 363 C1569
n 364 C1575
o 1 21
o 2 75
o 3 79
o 4 83
o 5 86
o 6 91
o 7 94
o 8 96
o 9 99
o 10 102
o 11 111
o 12 112
o 13 114
o 14 116
o 15 123
o 16 125
o 17 134
o 18 135
o 19 138
o 20 142
o 21 146
o 22 148
o 23 154
o 24 156
o 25 160
o 26 166
o 27 168
o 28 170
o 29 175
o 30 177
o 31 180
o 32 184
o 33 187
o 34 191
o 35 203
o 36 205
o 37 212
o 38 215
o 39 217
o 40 218
o 41 219
o 42 227
o 43 229
o 44 241
o 45 247
o 46 248
o 47 251
o 48 252
o 49 259
o 50 265
o 51 267
o 52 271
o 53 278
o 54 279
o 55 287
o 56 290
o 57 294
o 58 302
o 59 304
o 60 307
o 61 313
o 62 320
o 63 326
o 64 329
o 65 342
o 66 346
o 67 349
o 68 356
o 69 357
o 70 358
o 71 362
o 72 367
o 73 369
o 74 378
o 75 382
o 76 383
o 77 393
o 78 394
o 79 395
o 80 396
o 81 398
o 82 399
o 83 402
o 84 406
o 85 413
o 86 416
o 87 417
o 88 422
o 89 426
o 90 430
o 91 433
o 92 435
o 93 438
o 94 449
o 95 450
o 96 458
o 97 461
o 98 467
o 99 469
o 100 473
o 101 486
o 102 487
o 103 488
o 104 490
o 105 492
o 106 502
o 107 503
o 108 504
o 109 505
o 110 507
o 111 510
o 112 515
o 113 522
o 114 537
o 115 546
o 116 552
o 117 554
o 118 555
o 119 570
o 120 572
o 121 576
o 122 578
o 123 589
o 124 592
o 125 593
o 126 596
o 127 604
o 128 606
o 129 607
o 130 609
o 131 612
o 132 613
o 133 615
o 134 617
o 135 619
o 136 626
o 137 628
o 138 633
o 139 638
o 140 640
o 141 648
o 142 652
o 143 656
o 144 657
o 145 659
o 146 661
o 147 664
o 148 668
o 149 672
o 150 685
o 151 688
o 152 690
o 153 691
o 154 699
o 155 704
o 156 706
o 157 712
o 158 718
o 159 721
o 160 722
o 161 725
o 162 732
o 163 742
o 164 744
o 165 746
o 166 747
o 167 751
o 168 762
o 169 764
o 170 766
o 171 773
o 172 775
o 173 777
o 174 784
o 175 785
o 176 789
o 177 790
o 178 791
o 179 795
o 180 797
o 181 806
o 182 808
o 183 812
o 184 813
o 185 814
o 186 815
o 187 821
o 188 833
o 189 839
o 190 842
o 191 844
o 192 845
o 193 848
o 194 866
o 195 870
o 196 874
o 197 877
o 198 881
o 199 883
o 200 885
o 201 887
o 202 889
o 203 898
o 204 902
o 205 908
o 206 912
o 207 914
o 208 923
o 209 927
o 210 931
o 211 935
o 212 936
o 213 938
o 214 944
o 215 947
o 216 950
o 217 956
o 218 957
o 219 958
o 220 961
o 221 962
o 222 971
o 223 973
o 224 975
o 225 979
o 226 984
o 227 986
o 228 990
o 229 993
o 230 995
o 231 998
o 232 1001
o 233 1002
o 234 1004
o 235 1005
o 236 1006
o 237 1011
o 238 1026
o 239 1028
o 240 1030
o 241 1032
o 242 1034
o 243 1045
o 244 1048
o 245 1050
o 246 1051
o 247 1052
o 248 1055
o 249 1058
o 250 1059
o 251 1061
o 252 1067
o 253 1074
o 254 1076
o 255 1078
o 256 1079
o 257 1081
o 258 1082
o 259 1083
o 260 1085
o 261 1090
o 262 1094
o 263 1096
o 264 1103
o 265 1104
o 266 1105
o 267 1107
o 268 1109
o 269 1116
o 270 1118
o 271 1119
o 272 1120
o 273 1126
o 274 1129
o 275 1138
o 276 1140
o 277 1142
o 278 1144
o 279 1147
o 280 1149
o 281 1151
o 282 1158
o 283 1160
o 284 1162
o 285 1168
o 286 1173
o 287 1175
o 288 1179
o 289 1183
o 290 1194
o 291 1198
o 292 1200
o 293 1202
o 294 1204
o 295 1206
o 296 1213
o 297 1222
o 298 1223
o 299 1224
o 300 1229
o 301 1230
o 302 1233
o 303 1235
o 304 1242
o 305 1244
o 306 1246
o 307 1250
o 308 1252
o 309 1254
o 310 1255
o 311 1256
o 312 1263
o 313 1273
o 314 1274
o 315 1278
o 316 1284
o 317 1285
o 318 1288
o 319 1292
o 320 1293
o 321 1296
o 322 1299
o 323 1302
o 324 1304
o 325 1306
o 326 1312
o 327 1314
o 328 1320
o 329 1322
o 330 1323
o 331 1330
o 332 1332
o 333 1334
o 334 1335
o 335 1338
o 336 1340
o 337 1343
o 338 1344
o 339 1346
o 340 1352
o 341 1359
o 342 1360
o 343 1362
o 344 1365
o 345 1366
o 346 1367
o 347 1370
o 348 1372
o 349 1378
o 350 1382
o 351 1384
o 352 1386
o 353 1388
o 354 1390
o 355 1394
o 356 1398
o 357 1402
o 358 1404
o 359 1408
o 360 1410
o 361 1412
o 362 1415
o 363 1416
o 364 1422
